NAME: eil101
COMMENT: Tabu Search - tabusSize: 0.3 - neighborSize: 3
DIMENSION: 101
DISTANCE: 629.0
EXECUTION_TIME: 600.863
TOUR_SECTION: 
58 40 21 73 72 74 41 22 75 56 23 67 39 4 25 55 54 24 29 68 80 12 26 28 53 101 27 69 1 50 76 77 3 79 78 34 81 33 51 9 35 71 65 66 20 30 70 31 88 7 82 48 19 11 62 10 32 90 63 64 49 36 47 46 8 45 17 84 5 60 83 18 52 89 6 96 99 59 92 93 98 37 100 91 85 61 16 86 38 44 14 42 43 15 57 2 87 97 95 94 13 
EOF